50
    68    63    48    75    34    89    19    72    33    14    74    77    84     3    79    62    24    60    64    89     1    31    24    12    84     2    23    74    54   100    87    10     9    91    10    45    62    85    50    94    43    28    31    65    95    11    43    54    80    63
     3    10     6     3     8     7     8     2     6     3     2     9     4     4     1     3     8     1     6     1     4     5     9     8     7     1     3     5     5     4     9     9     9     2     7     8     6     7     9     3     9     1     5     4     5     8     5    10     3     6
     0   264     0     0   235     0    51     0     0     0     0   209   157   287   493     0    24     0    70   450   149     0     0   330     0     0   517   133   447   272   334     0     0     0     0     0   411     0     0   358   336     0     0     0     0     0     0     0     0   122
